Version identifier: 20.1.0.0 | 2020-11-10 | 9bedb6d68
CPXPARAM_LPMethod                                2
CPXPARAM_QPMethod                                2
CPXPARAM_Threads                                 4
CPXPARAM_MIP_Strategy_StartAlgorithm             2
CPXPARAM_Emphasis_MIP                            1
CPXPARAM_MIP_Limits_Solutions                    1
CPXPARAM_TimeLimit                               43195
Legacy callback                                  LD
Lazy constraint(s) or lazy constraint/branch callback is present.
    Disabling dual reductions (CPX_PARAM_REDUCE) in presolve.
    Disabling presolve reductions that prevent crushing forms (CPX_PARAM_PREREFORM).
         Disabling repeat represolve because of lazy constraint/incumbent callback.
Retaining values of one MIP start for possible repair.
Tried aggregator 1 time.
MIP Presolve eliminated 3 rows and 0 columns.
Reduced MIP has 360 rows, 247 columns, and 2729 nonzeros.
Reduced MIP has 247 binaries, 0 generals, 0 SOSs, and 0 indicators.
Presolve time = 0,00 sec. (1,03 ticks)
Probing time = 0,00 sec. (0,10 ticks)
MIP emphasis: integer feasibility.
MIP search method: traditional branch-and-cut.
Parallel mode: deterministic, using up to 4 threads.
Root relaxation solution time = 0,01 sec. (8,82 ticks)

        Nodes                                         Cuts/
   Node  Left     Objective  IInf  Best Integer    Best Bound    ItCnt     Gap         Variable B NodeID Parent  Depth

      0     0       69,5556   182                     69,5556      441         
      0     0       69,7640   192                    Cuts: 55      486         
      0     0       69,8480   189                    Cuts: 28      530         
      0     0       69,8708   198                    Cuts: 14      562         
Repair heuristic found nothing.
      0     2       70,9346   213                     69,8708      562                                 0             0
Elapsed time = 0,21 sec. (129,46 ticks, tree = 0,02 MB, solutions = 0)

Zero-half cuts applied:  16
Lift and project cuts applied:  3
User cuts applied:  238

Root node processing (before b&c):
  Real time             =    0,21 sec. (129,01 ticks)
Parallel b&c, 4 threads:
  Real time             =    0,08 sec. (30,54 ticks)
  Sync time (average)   =    0,03 sec.
  Wait time (average)   =    0,00 sec.
                          ------------
Total (root+branch&cut) =    0,29 sec. (159,55 ticks)
